# Time-averaged data for fix 3
# TimeStep Number-of-rows
# Row c_myrdf[1] c_myrdf[2] c_myrdf[3]
1000 80
1 0.0235699 0 0
2 0.0707096 0 0
3 0.117849 0 0
4 0.164989 0 0
5 0.212129 0 0
6 0.259269 0 0
7 0.306408 0 0
8 0.353548 0 0
9 0.400688 0 0
10 0.447828 0 0
11 0.494967 0 0
12 0.542107 0 0
13 0.589247 0 0
14 0.636387 0 0
15 0.683526 0 0
16 0.730666 0 0
17 0.777806 0 0
18 0.824946 0 0
19 0.872085 0 0
20 0.919225 0 0
21 0.966365 0 0
22 1.0135 0 0
23 1.06064 0 0
24 1.10778 0 0
25 1.15492 0 0
26 1.20206 0 0
27 1.2492 0 0
28 1.29634 0 0
29 1.34348 0 0
30 1.39062 0 0
31 1.43776 0 0
32 1.4849 0 0
33 1.53204 0 0
34 1.57918 0 0
35 1.62632 0 0
36 1.67346 0 0
37 1.7206 0 0
38 1.76774 0 0
39 1.81488 0 0
40 1.86202 0 0
41 1.90916 0 0
42 1.9563 0 0
43 2.00344 0 0
44 2.05058 0 0
45 2.09772 0.000714547 9.25926e-05
46 2.14486 0.0440848 0.00606481
47 2.192 0.342581 0.054537
48 2.23914 1.6058 0.29162
49 2.28628 4.39641 0.968333
50 2.33342 6.63564 2.03227
51 2.38056 6.14741 3.05815
52 2.4277 3.55236 3.67468
53 2.47484 1.35917 3.91981
54 2.52198 0.345315 3.98449
55 2.56912 0.0695532 3.99801
56 2.61626 0.0089579 3.99981
57 2.6634 0.000886525 4
58 2.71054 0 4
59 2.75768 0 4
60 2.80482 0 4
61 2.85195 0 4
62 2.89909 0 4
63 2.94623 0 4
64 2.99337 0 4
65 3.04051 0 4
66 3.08765 0 4
67 3.13479 0 4
68 3.18193 0 4
69 3.22907 0 4
70 3.27621 0 4
71 3.32335 0.000284698 4.00009
72 3.37049 0.00290629 4.00106
73 3.41763 0.00646097 4.00329
74 3.46477 0.0210855 4.01074
75 3.51191 0.0637368 4.03389
76 3.55905 0.196481 4.10718
77 3.60619 0.545118 4.31593
78 3.65333 1.16665 4.77444
79 3.70047 2.1492 5.64106
80 3.74761 3.36279 7.03181
