# Time-averaged data for fix 3
# TimeStep Number-of-rows
# Row c_myrdf[1] c_myrdf[2] c_myrdf[3]
1000 80
1 0.02 0 0
2 0.06 0 0
3 0.1 0 0
4 0.14 0 0
5 0.18 0 0
6 0.22 0 0
7 0.26 0 0
8 0.3 0 0
9 0.34 0 0
10 0.38 0 0
11 0.42 0 0
12 0.46 0 0
13 0.5 0 0
14 0.54 0 0
15 0.58 0 0
16 0.62 0 0
17 0.66 0 0
18 0.7 0 0
19 0.74 0 0
20 0.78 0 0
21 0.82 0 0
22 0.86 0 0
23 0.9 0 0
24 0.94 0 0
25 0.98 0 0
26 1.02 0 0
27 1.06 0 0
28 1.1 0 0
29 1.14 0 0
30 1.18 0 0
31 1.22 0 0
32 1.26 0 0
33 1.3 0 0
34 1.34 0 0
35 1.38 0 0
36 1.42 0 0
37 1.46 0 0
38 1.5 0 0
39 1.54 0 0
40 1.58 0 0
41 1.62 0 0
42 1.66 0 0
43 1.7 0 0
44 1.74 0 0
45 1.78 0 0
46 1.82 0 0
47 1.86 0 0
48 1.9 0 0
49 1.94 0 0
50 1.98 0 0
51 2.02 0 0
52 2.06 0 0
53 2.1 0.000420136 4.62963e-05
54 2.14 0.0137556 0.00162037
55 2.18 0.0970768 0.0131481
56 2.22 0.582714 0.0849074
57 2.26 2.03832 0.345046
58 2.3 4.50102 0.94
59 2.34 6.465 1.82454
60 2.38 6.23807 2.70745
61 2.42 4.44632 3.3581
62 2.46 2.44047 3.72713
63 2.5 1.08382 3.89639
64 2.54 0.427334 3.96528
65 2.58 0.136114 3.98792
66 2.62 0.0448062 3.9956
67 2.66 0.0162353 3.99847
68 2.7 0.0055915 3.99949
69 2.74 0.00148076 3.99977
70 2.78 0.00119871 4
71 2.82 0 4
72 2.86 0 4
73 2.9 0 4
74 2.94 0 4
75 2.98 0 4
76 3.02 0 4
77 3.06 0.000395751 4.00009
78 3.1 0.00212082 4.0006
79 3.14 0.00544972 4.00194
80 3.18 0.0159404 4.00597
