# Time-averaged data for fix 3
# TimeStep Number-of-rows
# Row c_myrdf[1] c_myrdf[2] c_myrdf[3]
1000 80
1 0.025 0 0
2 0.075 0 0
3 0.125 0 0
4 0.175 0 0
5 0.225 0 0
6 0.275 0 0
7 0.325 0 0
8 0.375 0 0
9 0.425 0 0
10 0.475 0 0
11 0.525 0 0
12 0.575 0 0
13 0.625 0 0
14 0.675 0 0
15 0.725 0 0
16 0.775 0 0
17 0.825 0 0
18 0.875 0 0
19 0.925 0 0
20 0.975 0 0
21 1.025 0 0
22 1.075 0 0
23 1.125 0 0
24 1.175 0 0
25 1.225 0 0
26 1.275 0 0
27 1.325 0 0
28 1.375 0 0
29 1.425 0 0
30 1.475 0 0
31 1.525 0 0
32 1.575 0 0
33 1.625 0 0
34 1.675 0 0
35 1.725 0 0
36 1.775 0 0
37 1.825 0 0
38 1.875 0 0
39 1.925 0 0
40 1.975 0 0
41 2.025 0 0
42 2.075 0 0
43 2.125 0 0
44 2.175 0.00626648 0.000925926
45 2.225 0.301796 0.0475926
46 2.275 3.01163 0.534444
47 2.325 8.01488 1.88769
48 2.375 7.71619 3.24713
49 2.425 3.2472 3.84356
50 2.475 0.701236 3.97773
51 2.525 0.101828 3.99801
52 2.575 0.00894176 3.99986
53 2.625 0.000645328 4
54 2.675 0 4
55 2.725 0 4
56 2.775 0 4
57 2.825 0 4
58 2.875 0 4
59 2.925 0 4
60 2.975 0 4
61 3.025 0 4
62 3.075 0 4
63 3.125 0 4
64 3.175 0 4
65 3.225 0 4
66 3.275 0 4
67 3.325 0 4
68 3.375 0.000130129 4.00005
69 3.425 0.00176901 4.00069
70 3.475 0.00540091 4.00273
71 3.525 0.028749 4.01389
72 3.575 0.124095 4.06343
73 3.625 0.435633 4.24222
74 3.675 1.2257 4.75926
75 3.725 2.65566 5.91019
76 3.775 4.40644 7.87148
77 3.825 5.43875 10.3568
78 3.875 5.0843 12.7413
79 3.925 3.57076 14.4594
80 3.975 1.93278 15.4133
