# Time-averaged data for fix 2
# TimeStep Number-of-rows
# Row c_myrdf[1] c_myrdf[2] c_myrdf[3]
1500 100
1 0.03 0 0
2 0.09 0 0
3 0.15 0 0
4 0.21 0 0
5 0.27 0 0
6 0.33 0 0
7 0.39 0 0
8 0.45 0 0
9 0.51 0 0
10 0.57 0 0
11 0.63 0 0
12 0.69 0 0
13 0.75 0 0
14 0.81 0 0
15 0.87 0 0
16 0.93 0 0
17 0.99 0 0
18 1.05 0 0
19 1.11 0 0
20 1.17 0 0
21 1.23 0 0
22 1.29 0 0
23 1.35 0 0
24 1.41 0 0
25 1.47 0 0
26 1.53 0 0
27 1.59 0 0
28 1.65 0 0
29 1.71 0 0
30 1.77 0 0
31 1.83 0 0
32 1.89 0 0
33 1.95 0 0
34 2.01 0 0
35 2.07 0 0
36 2.13 0 0
37 2.19 0 0
38 2.25 0 0
39 2.31 0 0
40 2.37 0 0
41 2.43 0 0
42 2.49 0.000164654 4.62963e-05
43 2.55 0.00392494 0.0012037
44 2.61 0.0750811 0.0243981
45 2.67 0.672625 0.241852
46 2.73 2.82914 1.19806
47 2.79 6.60917 3.53111
48 2.85 8.9887 6.84208
49 2.91 7.34215 9.66162
50 2.97 3.97921 11.2534
51 3.03 1.38218 11.8288
52 3.09 0.32814 11.9709
53 3.15 0.0568963 11.9965
54 3.21 0.00634089 11.9995
55 3.27 0.00105021 12
56 3.33 0 12
57 3.39 0 12
58 3.45 0 12
59 3.51 0 12
60 3.57 8.01026e-05 12
61 3.63 0.00108467 12.0007
62 3.69 0.006673 12.0048
63 3.75 0.0328866 12.0258
64 3.81 0.137493 12.1163
65 3.87 0.414581 12.3979
66 3.93 0.978342 13.0831
67 3.99 1.6031 14.2405
68 4.05 1.88316 15.6412
69 4.11 1.55105 16.8294
70 4.17 0.919167 17.5542
71 4.23 0.394774 17.8745
72 4.29 0.118044 17.973
73 4.35 0.0272997 17.9964
74 4.41 0.00388455 17.9999
75 4.47 0.000153283 18
76 4.53 0.000447747 18.0004
77 4.59 0.00576645 18.0059
78 4.65 0.0398024 18.045
79 4.71 0.228121 18.2744
80 4.77 0.863871 19.1658
81 4.83 2.26545 21.5625
82 4.89 4.12201 26.0322
83 4.95 5.16037 31.7661
84 5.01 4.49154 36.8786
85 5.07 2.7014 40.0275
86 5.13 1.16736 41.4206
87 5.19 0.369765 41.8723
88 5.25 0.0857103 41.9794
89 5.31 0.0139761 41.9973
90 5.37 0.00506263 42.0039
91 5.43 0.0201171 42.0308
92 5.49 0.112524 42.1846
93 5.55 0.39597 42.7377
94 5.61 0.989899 44.1505
95 5.67 1.68992 46.6142
96 5.73 1.9409 49.504
97 5.79 1.55929 51.8745
98 5.85 0.887522 53.2519
99 5.91 0.347855 53.8029
100 5.97 0.0986229 53.9623
